100 6 100
69 73 44 88 46 99 10 95 51 26 49 7 40 73 53 84 30 4 46 61 12 80 93 41 65 51 33 46 60 62 67 29 35 63 17 34 62 27 29 14 54 79 73 94 4 78 31 86 82 77 47 46 57 92 88 22 44 73 68 4 35 88 86 22 3 3 56 66 83 38 32 89 69 5 35 73 35 66 60 17 44 59 64 53 4 4 28 29 48 56 16 36 42 38 40 98 47 58 81 37 
